c 
c G(k,n,p) graph
c graph gen seed     : 1135
c number of vertices : 25
c max number of edges: 500
c number of classes  : 2
c edge density       : 0.600000
c edge probability   : 1.200000
c data structure     : dense
c
c           Graph Stats
c number of vertices  : 25
c nonisolated vertices: 25
c number of edges     : 126
c edge density        : 0.420000
c max degree          : 18
c avg degree          : 10.08
c min degree          : 7
p col 25 126
e 1 2
e 1 3
e 1 6
e 1 8
e 1 9
e 1 11
e 1 12
e 1 14
e 1 15
e 1 16
e 1 17
e 1 19
e 1 20
e 1 21
e 1 22
e 1 23
e 1 24
e 1 25
e 2 4
e 2 5
e 2 7
e 2 10
e 2 13
e 2 18
e 3 4
e 3 5
e 3 7
e 3 10
e 3 13
e 3 18
e 4 6
e 4 8
e 4 9
e 4 11
e 4 12
e 4 14
e 4 15
e 4 16
e 4 17
e 4 19
e 4 20
e 4 21
e 4 22
e 4 23
e 4 24
e 4 25
e 5 6
e 5 8
e 5 9
e 5 11
e 5 12
e 5 14
e 5 15
e 5 16
e 5 17
e 5 19
e 5 20
e 5 21
e 5 22
e 5 23
e 5 24
e 5 25
e 6 7
e 6 10
e 6 13
e 6 18
e 7 8
e 7 9
e 7 11
e 7 12
e 7 14
e 7 15
e 7 16
e 7 17
e 7 19
e 7 20
e 7 21
e 7 22
e 7 23
e 7 24
e 7 25
e 8 10
e 8 13
e 8 18
e 9 10
e 9 13
e 9 18
e 10 11
e 10 12
e 10 14
e 10 15
e 10 16
e 10 17
e 10 19
e 10 20
e 10 21
e 10 22
e 10 23
e 10 24
e 10 25
e 11 13
e 11 18
e 12 13
e 12 18
e 13 14
e 13 15
e 13 16
e 13 17
e 13 19
e 13 20
e 13 21
e 13 22
e 13 23
e 13 24
e 13 25
e 14 18
e 15 18
e 16 18
e 17 18
e 18 19
e 18 20
e 18 21
e 18 22
e 18 23
e 18 24
e 18 25
